tacasBenchmarks/factorization/in_cnf/factorization12.v_rsynth.cnf
c .nnodes 80
c .nvars 24
c .nsuppvars 24
c .ids  0 1 2 3 4 5 6 7 8 9 10 11 12 13 14 15 16 17 18 19 20 21 22 23 
c .cnfids  195 194 196 197 198 199 200 201 202 203 204 205 193 192 191 187 190 186 185 184 183 182 188 189 
c .nroots 1
c .rootids 2
p cnf 206 665
3 195 4 148 -152 0
3 -195 -4 148 -152 0
-3 -148 0
-3 195 -4 0
-3 152 0
-3 -195 4 0
4 -5 -143 0
4 5 143 0
-4 5 -143 0
-4 -5 143 0
5 6 120 0
-5 -6 0
-5 -120 0
6 -186 -193 -7 0
-6 186 0
-6 193 0
-6 7 0
7 -8 -115 0
7 8 115 0
-7 8 -115 0
-7 -8 115 0
8 9 92 0
-8 -9 0
-8 -92 0
9 -186 -192 -10 0
-9 186 0
-9 192 0
-9 10 0
10 -11 -87 0
10 11 87 0
-10 11 -87 0
-10 -11 87 0
11 12 64 0
-11 -12 0
-11 -64 0
12 -186 -191 -13 0
-12 186 0
-12 191 0
-12 13 0
13 -14 -62 0
13 14 62 0
-13 14 -62 0
-13 -14 62 0
14 15 37 0
-14 -15 0
-14 -37 0
15 -186 -190 -16 0
-15 186 0
-15 190 0
-15 16 0
16 17 -18 0
16 188 -17 18 0
16 186 -17 18 0
-16 17 18 0
-16 -17 -18 0
-16 -186 -188 18 0
17 -187 -189 0
-17 187 0
-17 189 0
18 19 34 0
-18 -19 0
-18 -34 0
19 20 21 0
-19 -20 0
-19 -21 0
20 -185 -186 -188 -189 0
-20 189 0
-20 185 0
-20 188 0
-20 186 0
21 22 -31 0
-21 -22 0
-21 31 0
22 23 24 0
-22 -23 0
-22 -24 0
23 -184 -185 -188 -189 0
-23 189 0
-23 184 0
-23 188 0
-23 185 0
24 25 -28 0
-24 -25 0
-24 28 0
25 26 27 0
-25 -26 0
-25 -27 0
26 -182 -183 -188 -189 0
-26 189 0
-26 182 0
-26 188 0
-26 183 0
27 -183 -184 -188 -189 0
-27 189 0
-27 183 0
-27 188 0
-27 184 0
28 29 -30 0
28 -29 30 0
-28 -29 -30 0
-28 29 30 0
29 -185 -188 0
-29 185 0
-29 188 0
30 -184 -189 0
-30 184 0
-30 189 0
31 32 -33 0
31 -32 33 0
-31 -32 -33 0
-31 32 33 0
32 -186 -188 0
-32 186 0
-32 188 0
33 -185 -189 0
-33 185 0
-33 189 0
34 -35 -36 0
34 35 36 0
-34 35 -36 0
-34 -35 36 0
35 -186 -189 0
-35 186 0
-35 189 0
36 -187 -188 0
-36 187 0
-36 188 0
37 38 -60 0
-37 -38 0
-37 60 0
38 39 41 0
-38 -39 0
-38 -41 0
39 -185 -190 -40 0
-39 185 0
-39 190 0
-39 40 0
40 19 -34 0
40 -19 34 0
-40 -19 -34 0
-40 19 34 0
41 42 -58 0
-41 -42 0
-41 58 0
42 43 45 0
-42 -43 0
-42 -45 0
43 -184 -190 -44 0
-43 184 0
-43 190 0
-43 44 0
44 -22 -31 0
44 22 31 0
-44 22 -31 0
-44 -22 31 0
45 46 -56 0
-45 -46 0
-45 56 0
46 47 49 0
-46 -47 0
-46 -49 0
47 -183 -190 -48 0
-47 183 0
-47 190 0
-47 48 0
48 -25 -28 0
48 25 28 0
-48 25 -28 0
-48 -25 28 0
49 -50 -54 0
-49 50 0
-49 54 0
50 -182 -190 -51 0
-50 182 0
-50 190 0
-50 51 0
51 26 -52 53 0
51 -26 -52 -53 0
51 26 52 -53 0
-51 -26 53 0
-51 -26 52 0
-51 52 53 0
-51 26 -52 -53 0
52 -184 -188 0
-52 184 0
-52 188 0
53 -183 -189 0
-53 183 0
-53 189 0
54 48 -55 0
54 -48 55 0
-54 -48 -55 0
-54 48 55 0
55 -183 -190 0
-55 183 0
-55 190 0
56 44 -57 0
56 -44 57 0
-56 -44 -57 0
-56 44 57 0
57 -184 -190 0
-57 184 0
-57 190 0
58 40 -59 0
58 -40 59 0
-58 -40 -59 0
-58 40 59 0
59 -185 -190 0
-59 185 0
-59 190 0
60 61 -16 0
60 -61 16 0
-60 -61 -16 0
-60 61 16 0
61 -186 -190 0
-61 186 0
-61 190 0
62 190 -63 0
62 -187 -190 63 0
-62 187 -190 0
-62 190 63 0
-62 -190 -63 0
63 -187 -189 -18 0
63 -187 -189 -32 0
-63 187 0
-63 189 0
-63 32 18 0
64 65 -85 0
-64 -65 0
-64 85 0
65 66 68 0
-65 -66 0
-65 -68 0
66 -185 -191 -67 0
-66 185 0
-66 191 0
-66 67 0
67 -38 -60 0
67 38 60 0
-67 38 -60 0
-67 -38 60 0
68 69 -83 0
-68 -69 0
-68 83 0
69 70 72 0
-69 -70 0
-69 -72 0
70 -184 -191 -71 0
-70 184 0
-70 191 0
-70 71 0
71 -42 -58 0
71 42 58 0
-71 42 -58 0
-71 -42 58 0
72 73 -81 0
-72 -73 0
-72 81 0
73 74 76 0
-73 -74 0
-73 -76 0
74 -183 -191 -75 0
-74 183 0
-74 191 0
-74 75 0
75 -46 -56 0
75 46 56 0
-75 46 -56 0
-75 -46 56 0
76 -77 -79 0
-76 77 0
-76 79 0
77 -182 -191 -78 0
-77 182 0
-77 191 0
-77 78 0
78 50 -54 0
78 -50 54 0
-78 -50 -54 0
-78 50 54 0
79 75 -80 0
79 -75 80 0
-79 -75 -80 0
-79 75 80 0
80 -183 -191 0
-80 183 0
-80 191 0
81 71 -82 0
81 -71 82 0
-81 -71 -82 0
-81 71 82 0
82 -184 -191 0
-82 184 0
-82 191 0
83 84 -67 0
83 -84 67 0
-83 -84 -67 0
-83 84 67 0
84 -185 -191 0
-84 185 0
-84 191 0
85 86 -13 0
85 -86 13 0
-85 -86 -13 0
-85 86 13 0
86 -186 -191 0
-86 186 0
-86 191 0
87 -88 -89 0
87 88 89 0
-87 88 -89 0
-87 -88 89 0
88 -187 -191 0
-88 187 0
-88 191 0
89 90 91 0
-89 -90 0
-89 -91 0
90 -190 -63 0
-90 190 0
-90 63 0
91 14 -62 0
-91 -14 0
-91 62 0
92 93 -113 0
-92 -93 0
-92 113 0
93 94 96 0
-93 -94 0
-93 -96 0
94 -185 -192 -95 0
-94 185 0
-94 192 0
-94 95 0
95 -65 -85 0
95 65 85 0
-95 65 -85 0
-95 -65 85 0
96 97 -111 0
-96 -97 0
-96 111 0
97 98 100 0
-97 -98 0
-97 -100 0
98 -184 -192 -99 0
-98 184 0
-98 192 0
-98 99 0
99 -69 -83 0
99 69 83 0
-99 69 -83 0
-99 -69 83 0
100 101 -109 0
-100 -101 0
-100 109 0
101 102 104 0
-101 -102 0
-101 -104 0
102 -183 -192 -103 0
-102 183 0
-102 192 0
-102 103 0
103 -73 -81 0
103 73 81 0
-103 73 -81 0
-103 -73 81 0
104 -105 -107 0
-104 105 0
-104 107 0
105 -182 -192 -106 0
-105 182 0
-105 192 0
-105 106 0
106 77 -79 0
106 -77 79 0
-106 -77 -79 0
-106 77 79 0
107 103 -108 0
107 -103 108 0
-107 -103 -108 0
-107 103 108 0
108 -183 -192 0
-108 183 0
-108 192 0
109 110 -99 0
109 -110 99 0
-109 -110 -99 0
-109 110 99 0
110 -184 -192 0
-110 184 0
-110 192 0
111 112 -95 0
111 -112 95 0
-111 -112 -95 0
-111 112 95 0
112 -185 -192 0
-112 185 0
-112 192 0
113 114 -10 0
113 -114 10 0
-113 -114 -10 0
-113 114 10 0
114 -186 -192 0
-114 186 0
-114 192 0
115 -116 -117 0
115 116 117 0
-115 116 -117 0
-115 -116 117 0
116 -187 -192 0
-116 187 0
-116 192 0
117 118 119 0
-117 -118 0
-117 -119 0
118 -187 -191 89 0
-118 187 0
-118 191 0
-118 -89 0
119 11 -87 0
-119 -11 0
-119 87 0
120 121 -141 0
-120 -121 0
-120 141 0
121 122 124 0
-121 -122 0
-121 -124 0
122 -185 -193 -123 0
-122 185 0
-122 193 0
-122 123 0
123 -93 -113 0
123 93 113 0
-123 93 -113 0
-123 -93 113 0
124 125 -139 0
-124 -125 0
-124 139 0
125 126 128 0
-125 -126 0
-125 -128 0
126 -184 -193 -127 0
-126 184 0
-126 193 0
-126 127 0
127 -97 -111 0
127 97 111 0
-127 97 -111 0
-127 -97 111 0
128 129 -137 0
-128 -129 0
-128 137 0
129 130 132 0
-129 -130 0
-129 -132 0
130 -183 -193 -131 0
-130 183 0
-130 193 0
-130 131 0
131 -101 -109 0
131 101 109 0
-131 101 -109 0
-131 -101 109 0
132 -133 -135 0
-132 133 0
-132 135 0
133 -182 -193 -134 0
-133 182 0
-133 193 0
-133 134 0
134 105 -107 0
134 -105 107 0
-134 -105 -107 0
-134 105 107 0
135 136 -131 0
135 -136 131 0
-135 -136 -131 0
-135 136 131 0
136 -183 -193 0
-136 183 0
-136 193 0
137 138 -127 0
137 -138 127 0
-137 -138 -127 0
-137 138 127 0
138 -184 -193 0
-138 184 0
-138 193 0
139 140 -123 0
139 -140 123 0
-139 -140 -123 0
-139 140 123 0
140 -185 -193 0
-140 185 0
-140 193 0
141 142 -7 0
141 -142 7 0
-141 -142 -7 0
-141 142 7 0
142 -186 -193 0
-142 186 0
-142 193 0
143 -144 -145 0
143 144 145 0
-143 144 -145 0
-143 -144 145 0
144 -187 -193 0
-144 187 0
-144 193 0
145 146 147 0
-145 -146 0
-145 -147 0
146 -187 -192 117 0
-146 187 0
-146 192 0
-146 -117 0
147 8 -115 0
-147 -8 0
-147 115 0
148 -194 -149 0
148 194 149 0
-148 194 -149 0
-148 -194 149 0
149 150 151 0
-149 -150 0
-149 -151 0
150 -187 -193 145 0
-150 187 0
-150 193 0
-150 -145 0
151 5 -143 0
-151 -5 0
-151 143 0
152 196 153 154 -156 0
152 -196 -153 154 -156 0
-152 -154 0
-152 196 -153 0
-152 156 0
-152 -196 153 0
153 -121 -141 0
153 121 141 0
-153 121 -141 0
-153 -121 141 0
154 197 -155 0
154 -197 155 0
-154 -197 -155 0
-154 197 155 0
155 -125 -139 0
155 125 139 0
-155 125 -139 0
-155 -125 139 0
156 198 157 158 -160 0
156 -198 -157 158 -160 0
-156 -158 0
-156 198 -157 0
-156 160 0
-156 -198 157 0
157 -129 -137 0
157 129 137 0
-157 129 -137 0
-157 -129 137 0
158 199 -159 0
158 -199 159 0
-158 -199 -159 0
-158 199 159 0
159 133 -135 0
159 -133 135 0
-159 -133 -135 0
-159 133 135 0
160 -200 -161 -163 0
160 200 161 -163 0
-160 163 0
-160 -200 161 0
-160 200 -161 0
161 134 -162 0
161 -134 162 0
-161 -134 -162 0
-161 134 162 0
162 -182 -193 0
-162 182 0
-162 193 0
163 -201 -164 -166 0
163 201 164 -166 0
-163 166 0
-163 -201 164 0
-163 201 -164 0
164 106 -165 0
164 -106 165 0
-164 -106 -165 0
-164 106 165 0
165 -182 -192 0
-165 182 0
-165 192 0
166 -202 -167 -169 0
166 202 167 -169 0
-166 169 0
-166 -202 167 0
-166 202 -167 0
167 78 -168 0
167 -78 168 0
-167 -78 -168 0
-167 78 168 0
168 -182 -191 0
-168 182 0
-168 191 0
169 203 170 172 -175 0
169 -203 -170 172 -175 0
-169 -172 0
-169 203 -170 0
-169 175 0
-169 -203 170 0
170 171 -51 0
170 -171 51 0
-170 -171 -51 0
-170 171 51 0
171 -182 -190 0
-171 182 0
-171 190 0
172 -188 -173 0
172 -182 -188 205 0
-172 188 0
-172 -205 173 0
-172 182 173 0
173 189 190 193 -174 0
-173 174 0
-173 -193 0
-173 -189 0
-173 -190 0
174 191 192 0
-174 -191 0
-174 -192 0
175 204 176 179 180 0
175 -204 -176 179 180 0
-175 -179 0
-175 -204 176 0
-175 -180 0
-175 204 -176 0
176 177 -178 0
176 -177 178 0
-176 -177 -178 0
-176 177 178 0
177 -183 -188 0
-177 183 0
-177 188 0
178 -182 -189 0
-178 182 0
-178 189 0
179 188 -205 0
179 182 -205 0
-179 205 0
-179 -182 -188 0
180 -182 183 -181 0
-180 182 0
-180 -183 0
-180 181 0
181 184 185 186 187 0
-181 -187 0
-181 -186 0
-181 -184 0
-181 -185 0
206 0
2 -3 0
-2 3 0
2 0

